(set-logic QF_S)
(set-option :strings-exp true)
(set-option :produce-models true)
(declare-fun sigmaStar_0 () String)
(declare-fun sigmaStar_1 () String)
(declare-fun literal_5 () String)
(assert (= literal_5 "\x45\x72\x72\x6f\x72\x3a\x20\x63\x6f\x75\x6c\x64\x20\x6e\x6f\x74\x20\x63\x72\x65\x61\x74\x65\x20\x6e\x61\x6d\x65"))
(assert (str.in.re literal_5 (re.++ (re.* re.allchar) (re.++ (str.to.re "\x5c\x3c\x53\x43\x52\x49\x50\x54") (re.* re.allchar)))))
(check-sat)
(get-model)
